12.91 0.18 2.32 24.93 0.24 4.72 27.11 0.13 4.47 21.45 0.28 3.85
19.86 0.13 4.07 28.5 0.24 2.03 20.33 0.19 2.84 21.57 0.13 4.65
16.46 0.28 3.84 24.75 0.16 2.97 29.07 0.19 2.15 28.67 0.12 2.69
18.71 0.14 3.17 27.91 0.16 4.68 13.99 0.12 4.62 18.19 0.13 2.36
27.82 0.12 2.17 10.31 0.16 4.85 19.28 0.21 4.05 14.35 0.19 3.42
18.09 0.11 4.67 11.06 0.26 3.22 12.68 0.18 3.42 19.02 0.18 4.8
23.67 0.13 2.88 28.61 0.14 4.19 10.04 0.25 4.19 13.47 0.23 2.3
14.21 0.26 4.9 29.0 0.17 4.08 25.89 0.14 3.0 18.27 0.15 2.12
11.99 0.21 4.5 12.41 0.24 3.75 26.45 0.18 3.46 26.88 0.21 2.76
20.6 0.27 2.09 10.22 0.3 4.58 13.67 0.24 4.21 23.97 0.1 2.5
